SECTION Graph
Nodes 752
Edges 1264
E 1 2 5
E 2 3 5
E 3 4 5
E 4 5 5
E 5 6 5
E 6 7 5
E 7 8 5
E 8 9 5
E 9 10 5
E 10 11 5
E 11 12 5
E 13 14 5
E 14 15 5
E 15 16 5
E 16 17 5
E 17 18 5
E 18 19 5
E 19 20 5
E 20 21 5
E 21 22 5
E 22 23 5
E 23 24 5
E 24 25 5
E 25 26 5
E 26 27 5
E 27 28 5
E 28 29 5
E 29 30 5
E 30 31 5
E 31 32 5
E 32 33 5
E 33 34 5
E 34 35 5
E 35 36 5
E 36 37 5
E 37 38 5
E 38 39 5
E 39 40 5
E 40 41 5
E 41 42 5
E 43 44 5
E 44 45 5
E 46 47 5
E 47 48 5
E 48 49 5
E 49 50 5
E 1 51 13
E 2 52 13
E 3 53 13
E 4 54 13
E 5 55 13
E 6 56 13
E 7 57 13
E 8 58 13
E 11 61 13
E 12 62 13
E 13 64 13
E 14 65 13
E 15 66 13
E 16 67 13
E 17 68 13
E 18 69 13
E 19 70 13
E 20 71 13
E 21 72 13
E 22 73 13
E 23 74 13
E 24 75 13
E 25 76 13
E 26 77 13
E 27 78 13
E 28 79 13
E 29 80 13
E 30 81 13
E 31 82 13
E 34 85 13
E 35 86 13
E 36 87 13
E 37 88 13
E 38 89 13
E 41 92 13
E 42 93 13
E 43 94 13
E 45 95 13
E 46 97 13
E 47 98 13
E 48 99 13
E 49 100 13
E 50 101 13
E 51 52 5
E 52 53 5
E 53 54 5
E 54 55 5
E 55 56 5
E 56 57 5
E 57 58 5
E 58 59 5
E 59 60 5
E 60 61 5
E 61 62 5
E 62 63 5
E 63 64 5
E 64 65 5
E 65 66 5
E 66 67 5
E 67 68 5
E 68 69 5
E 69 70 5
E 70 71 5
E 71 72 5
E 72 73 5
E 73 74 5
E 74 75 5
E 75 76 5
E 76 77 5
E 77 78 5
E 78 79 5
E 79 80 5
E 80 81 5
E 81 82 5
E 82 83 5
E 83 84 5
E 84 85 5
E 85 86 5
E 86 87 5
E 87 88 5
E 88 89 5
E 89 90 5
E 90 91 5
E 91 92 5
E 92 93 5
E 95 96 5
E 96 97 5
E 97 98 5
E 98 99 5
E 99 100 5
E 100 101 5
E 51 102 13
E 52 103 13
E 53 104 13
E 54 105 13
E 55 106 13
E 56 107 13
E 57 108 13
E 58 109 13
E 59 110 13
E 60 111 13
E 61 112 13
E 62 113 13
E 63 114 13
E 64 115 13
E 65 116 13
E 66 117 13
E 67 118 13
E 68 119 13
E 69 120 13
E 70 121 13
E 71 122 13
E 72 123 13
E 73 124 13
E 74 125 13
E 75 126 13
E 76 127 13
E 77 128 13
E 78 129 13
E 79 130 13
E 80 131 13
E 81 132 13
E 82 133 13
E 83 134 13
E 86 137 13
E 87 138 13
E 90 141 13
E 91 142 13
E 92 143 13
E 93 144 13
E 94 146 13
E 95 147 13
E 97 148 13
E 99 149 13
E 100 150 13
E 101 151 13
E 102 103 5
E 103 104 5
E 104 105 5
E 105 106 5
E 106 107 5
E 107 108 5
E 108 109 5
E 109 110 5
E 110 111 5
E 111 112 5
E 112 113 5
E 113 114 5
E 114 115 5
E 115 116 5
E 116 117 5
E 117 118 5
E 118 119 5
E 119 120 5
E 120 121 5
E 121 122 5
E 122 123 5
E 123 124 5
E 124 125 5
E 125 126 5
E 126 127 5
E 127 128 5
E 128 129 5
E 129 130 5
E 130 131 5
E 131 132 5
E 132 133 5
E 133 134 5
E 134 135 5
E 135 136 5
E 136 137 5
E 137 138 5
E 138 139 5
E 139 140 5
E 140 141 5
E 141 142 5
E 142 143 5
E 143 144 5
E 144 145 5
E 145 146 5
E 149 150 5
E 150 151 5
E 102 152 13
E 103 153 13
E 104 154 13
E 105 155 13
E 106 156 13
E 107 157 13
E 108 158 13
E 109 159 13
E 110 160 13
E 111 161 13
E 112 162 13
E 113 163 13
E 114 164 13
E 115 165 13
E 116 166 13
E 117 167 13
E 118 168 13
E 121 171 13
E 122 172 13
E 125 175 13
E 126 176 13
E 127 177 13
E 128 178 13
E 129 179 13
E 132 182 13
E 133 183 13
E 135 184 13
E 137 185 13
E 138 186 13
E 139 187 13
E 140 188 13
E 143 191 13
E 144 192 13
E 145 193 13
E 146 194 13
E 147 196 13
E 148 197 13
E 149 198 13
E 150 199 13
E 151 200 13
E 152 153 5
E 153 154 5
E 154 155 5
E 155 156 5
E 156 157 5
E 157 158 5
E 158 159 5
E 159 160 5
E 160 161 5
E 161 162 5
E 162 163 5
E 163 164 5
E 164 165 5
E 165 166 5
E 166 167 5
E 167 168 5
E 168 169 5
E 169 170 5
E 170 171 5
E 171 172 5
E 172 173 5
E 173 174 5
E 174 175 5
E 175 176 5
E 176 177 5
E 177 178 5
E 178 179 5
E 179 180 5
E 180 181 5
E 181 182 5
E 182 183 5
E 185 186 5
E 186 187 5
E 187 188 5
E 188 189 5
E 189 190 5
E 190 191 5
E 191 192 5
E 192 193 5
E 193 194 5
E 194 195 5
E 195 196 5
E 198 199 5
E 199 200 5
E 152 201 13
E 153 202 13
E 154 203 13
E 155 204 13
E 156 205 13
E 157 206 13
E 158 207 13
E 159 208 13
E 160 209 13
E 161 210 13
E 162 211 13
E 163 212 13
E 164 213 13
E 165 214 13
E 166 215 13
E 167 216 13
E 170 219 13
E 171 220 13
E 172 221 13
E 173 222 13
E 174 223 13
E 177 226 13
E 178 227 13
E 179 228 13
E 182 231 13
E 183 232 13
E 184 233 13
E 185 234 13
E 186 235 13
E 189 238 13
E 190 239 13
E 193 242 13
E 194 243 13
E 195 244 13
E 196 245 13
E 197 247 13
E 198 249 13
E 199 250 13
E 200 251 13
E 201 202 5
E 202 203 5
E 203 204 5
E 204 205 5
E 205 206 5
E 206 207 5
E 207 208 5
E 208 209 5
E 209 210 5
E 210 211 5
E 211 212 5
E 212 213 5
E 213 214 5
E 214 215 5
E 215 216 5
E 216 217 5
E 217 218 5
E 218 219 5
E 219 220 5
E 220 221 5
E 221 222 5
E 222 223 5
E 223 224 5
E 224 225 5
E 225 226 5
E 226 227 5
E 227 228 5
E 228 229 5
E 229 230 5
E 230 231 5
E 231 232 5
E 234 235 5
E 235 236 5
E 236 237 5
E 237 238 5
E 238 239 5
E 239 240 5
E 240 241 5
E 241 242 5
E 242 243 5
E 243 244 5
E 244 245 5
E 245 246 5
E 246 247 5
E 247 248 5
E 248 249 5
E 249 250 5
E 250 251 5
E 201 252 13
E 202 253 13
E 203 254 13
E 204 255 13
E 205 256 13
E 206 257 13
E 207 258 13
E 208 259 13
E 209 260 13
E 210 261 13
E 213 264 13
E 214 265 13
E 215 266 13
E 216 267 13
E 217 268 13
E 218 269 13
E 221 272 13
E 222 273 13
E 223 274 13
E 224 275 13
E 225 276 13
E 226 277 13
E 229 280 13
E 230 281 13
E 231 282 13
E 232 283 13
E 233 285 13
E 234 287 13
E 235 288 13
E 236 289 13
E 237 290 13
E 240 293 13
E 241 294 13
E 244 297 13
E 245 298 13
E 247 299 13
E 248 300 13
E 249 301 13
E 252 253 5
E 253 254 5
E 254 255 5
E 255 256 5
E 256 257 5
E 257 258 5
E 258 259 5
E 259 260 5
E 260 261 5
E 261 262 5
E 262 263 5
E 263 264 5
E 264 265 5
E 265 266 5
E 266 267 5
E 267 268 5
E 268 269 5
E 269 270 5
E 270 271 5
E 271 272 5
E 272 273 5
E 273 274 5
E 274 275 5
E 275 276 5
E 276 277 5
E 277 278 5
E 278 279 5
E 279 280 5
E 280 281 5
E 281 282 5
E 282 283 5
E 283 284 5
E 284 285 5
E 285 286 5
E 286 287 5
E 287 288 5
E 288 289 5
E 289 290 5
E 290 291 5
E 291 292 5
E 292 293 5
E 293 294 5
E 294 295 5
E 295 296 5
E 296 297 5
E 297 298 5
E 299 300 5
E 300 301 5
E 301 302 5
E 302 303 5
E 252 304 13
E 253 305 13
E 254 306 13
E 255 307 13
E 256 308 13
E 257 309 13
E 258 310 13
E 261 313 13
E 262 314 13
E 263 315 13
E 266 318 13
E 267 319 13
E 270 322 13
E 271 323 13
E 272 324 13
E 275 327 13
E 276 328 13
E 277 329 13
E 278 330 13
E 279 331 13
E 280 332 13
E 281 333 13
E 282 334 13
E 283 335 13
E 284 336 13
E 285 337 13
E 286 338 13
E 287 339 13
E 288 340 13
E 291 343 13
E 292 344 13
E 294 345 13
E 295 346 13
E 296 347 13
E 297 348 13
E 298 349 13
E 299 350 13
E 301 351 13
E 302 352 13
E 303 353 13
E 304 305 5
E 305 306 5
E 306 307 5
E 307 308 5
E 308 309 5
E 309 310 5
E 310 311 5
E 311 312 5
E 312 313 5
E 313 314 5
E 314 315 5
E 315 316 5
E 316 317 5
E 317 318 5
E 318 319 5
E 319 320 5
E 320 321 5
E 321 322 5
E 322 323 5
E 323 324 5
E 324 325 5
E 325 326 5
E 326 327 5
E 327 328 5
E 328 329 5
E 329 330 5
E 330 331 5
E 331 332 5
E 332 333 5
E 333 334 5
E 334 335 5
E 335 336 5
E 336 337 5
E 337 338 5
E 338 339 5
E 339 340 5
E 340 341 5
E 341 342 5
E 342 343 5
E 343 344 5
E 345 346 5
E 346 347 5
E 347 348 5
E 348 349 5
E 351 352 5
E 352 353 5
E 304 354 13
E 307 357 13
E 308 358 13
E 309 359 13
E 310 360 13
E 311 361 13
E 312 362 13
E 313 363 13
E 314 364 13
E 315 365 13
E 316 366 13
E 317 367 13
E 318 368 13
E 319 369 13
E 322 372 13
E 323 373 13
E 324 374 13
E 325 375 13
E 326 376 13
E 327 377 13
E 328 378 13
E 329 379 13
E 330 380 13
E 331 381 13
E 332 382 13
E 333 383 13
E 334 384 13
E 335 385 13
E 336 386 13
E 338 387 13
E 339 388 13
E 340 389 13
E 343 392 13
E 344 393 13
E 345 394 13
E 346 395 13
E 347 396 13
E 349 397 13
E 350 399 13
E 351 400 13
E 352 401 13
E 353 402 13
E 354 355 5
E 355 356 5
E 356 357 5
E 357 358 5
E 358 359 5
E 359 360 5
E 360 361 5
E 361 362 5
E 362 363 5
E 363 364 5
E 364 365 5
E 365 366 5
E 366 367 5
E 367 368 5
E 368 369 5
E 369 370 5
E 370 371 5
E 371 372 5
E 372 373 5
E 373 374 5
E 374 375 5
E 375 376 5
E 376 377 5
E 377 378 5
E 378 379 5
E 379 380 5
E 380 381 5
E 381 382 5
E 382 383 5
E 383 384 5
E 384 385 5
E 385 386 5
E 387 388 5
E 388 389 5
E 389 390 5
E 390 391 5
E 391 392 5
E 392 393 5
E 394 395 5
E 395 396 5
E 397 398 5
E 398 399 5
E 400 401 5
E 401 402 5
E 354 403 13
E 355 404 13
E 356 405 13
E 357 406 13
E 358 407 13
E 359 408 13
E 360 409 13
E 363 412 13
E 364 413 13
E 365 414 13
E 368 417 13
E 369 418 13
E 370 419 13
E 373 422 13
E 374 423 13
E 375 424 13
E 376 425 13
E 377 426 13
E 378 427 13
E 379 428 13
E 380 429 13
E 381 430 13
E 382 431 13
E 383 432 13
E 384 433 13
E 385 434 13
E 386 435 13
E 387 436 13
E 388 437 13
E 389 438 13
E 392 441 13
E 393 442 13
E 394 444 13
E 395 445 13
E 396 446 13
E 397 447 13
E 398 448 13
E 399 449 13
E 400 451 13
E 401 452 13
E 402 453 13
E 403 404 5
E 404 405 5
E 405 406 5
E 406 407 5
E 407 408 5
E 408 409 5
E 409 410 5
E 410 411 5
E 411 412 5
E 412 413 5
E 413 414 5
E 414 415 5
E 415 416 5
E 416 417 5
E 417 418 5
E 418 419 5
E 419 420 5
E 420 421 5
E 421 422 5
E 422 423 5
E 423 424 5
E 424 425 5
E 425 426 5
E 426 427 5
E 427 428 5
E 428 429 5
E 429 430 5
E 430 431 5
E 431 432 5
E 432 433 5
E 433 434 5
E 434 435 5
E 436 437 5
E 437 438 5
E 438 439 5
E 439 440 5
E 440 441 5
E 441 442 5
E 442 443 5
E 443 444 5
E 444 445 5
E 445 446 5
E 447 448 5
E 448 449 5
E 449 450 5
E 450 451 5
E 451 452 5
E 452 453 5
E 403 454 13
E 404 455 13
E 405 456 13
E 406 457 13
E 407 458 13
E 408 459 13
E 409 460 13
E 410 461 13
E 411 462 13
E 412 463 13
E 415 466 13
E 416 467 13
E 417 468 13
E 418 469 13
E 421 472 13
E 422 473 13
E 423 474 13
E 424 475 13
E 425 476 13
E 426 477 13
E 427 478 13
E 428 479 13
E 429 480 13
E 430 481 13
E 431 482 13
E 432 483 13
E 433 484 13
E 434 485 13
E 435 486 13
E 436 488 13
E 439 491 13
E 442 494 13
E 443 495 13
E 444 496 13
E 445 497 13
E 446 498 13
E 447 500 13
E 449 501 13
E 450 502 13
E 451 503 13
E 452 504 13
E 453 505 13
E 454 455 5
E 455 456 5
E 456 457 5
E 457 458 5
E 458 459 5
E 459 460 5
E 460 461 5
E 461 462 5
E 462 463 5
E 463 464 5
E 464 465 5
E 465 466 5
E 466 467 5
E 467 468 5
E 468 469 5
E 469 470 5
E 470 471 5
E 471 472 5
E 472 473 5
E 473 474 5
E 474 475 5
E 475 476 5
E 476 477 5
E 477 478 5
E 478 479 5
E 479 480 5
E 480 481 5
E 481 482 5
E 482 483 5
E 483 484 5
E 484 485 5
E 485 486 5
E 486 487 5
E 487 488 5
E 488 489 5
E 489 490 5
E 490 491 5
E 491 492 5
E 492 493 5
E 493 494 5
E 494 495 5
E 495 496 5
E 496 497 5
E 497 498 5
E 498 499 5
E 499 500 5
E 501 502 5
E 502 503 5
E 503 504 5
E 504 505 5
E 454 506 13
E 455 507 13
E 456 508 13
E 457 509 13
E 458 510 13
E 459 511 13
E 462 514 13
E 463 515 13
E 466 518 13
E 467 519 13
E 468 520 13
E 471 523 13
E 472 524 13
E 473 525 13
E 474 526 13
E 475 527 13
E 476 528 13
E 477 529 13
E 478 530 13
E 479 531 13
E 480 532 13
E 482 533 13
E 484 534 13
E 486 535 13
E 487 536 13
E 488 537 13
E 489 538 13
E 492 541 13
E 493 542 13
E 494 543 13
E 497 546 13
E 498 547 13
E 499 548 13
E 500 549 13
E 501 550 13
E 504 553 13
E 505 554 13
E 506 507 5
E 507 508 5
E 508 509 5
E 509 510 5
E 510 511 5
E 511 512 5
E 512 513 5
E 513 514 5
E 514 515 5
E 515 516 5
E 516 517 5
E 517 518 5
E 518 519 5
E 519 520 5
E 520 521 5
E 521 522 5
E 522 523 5
E 523 524 5
E 524 525 5
E 525 526 5
E 526 527 5
E 527 528 5
E 528 529 5
E 529 530 5
E 530 531 5
E 531 532 5
E 535 536 5
E 536 537 5
E 537 538 5
E 538 539 5
E 539 540 5
E 540 541 5
E 541 542 5
E 542 543 5
E 543 544 5
E 544 545 5
E 545 546 5
E 546 547 5
E 547 548 5
E 548 549 5
E 550 551 5
E 551 552 5
E 552 553 5
E 553 554 5
E 506 555 13
E 507 556 13
E 508 557 13
E 509 558 13
E 510 559 13
E 511 560 13
E 512 561 13
E 513 562 13
E 514 563 13
E 515 564 13
E 518 567 13
E 519 568 13
E 520 569 13
E 521 570 13
E 522 571 13
E 523 572 13
E 524 573 13
E 525 574 13
E 526 575 13
E 527 576 13
E 530 579 13
E 531 580 13
E 532 581 13
E 533 582 13
E 534 583 13
E 535 584 13
E 536 585 13
E 538 586 13
E 540 587 13
E 541 588 13
E 542 589 13
E 543 590 13
E 544 591 13
E 545 592 13
E 546 593 13
E 547 594 13
E 548 595 13
E 549 596 13
E 550 598 13
E 551 599 13
E 552 600 13
E 553 601 13
E 555 556 5
E 556 557 5
E 557 558 5
E 558 559 5
E 559 560 5
E 560 561 5
E 561 562 5
E 562 563 5
E 563 564 5
E 564 565 5
E 565 566 5
E 566 567 5
E 567 568 5
E 568 569 5
E 569 570 5
E 570 571 5
E 571 572 5
E 572 573 5
E 573 574 5
E 574 575 5
E 575 576 5
E 576 577 5
E 577 578 5
E 578 579 5
E 579 580 5
E 580 581 5
E 584 585 5
E 587 588 5
E 588 589 5
E 589 590 5
E 590 591 5
E 591 592 5
E 592 593 5
E 593 594 5
E 594 595 5
E 595 596 5
E 596 597 5
E 597 598 5
E 598 599 5
E 599 600 5
E 600 601 5
E 555 602 13
E 558 605 13
E 559 606 13
E 560 607 13
E 561 608 13
E 562 609 13
E 563 610 13
E 564 611 13
E 565 612 13
E 566 613 13
E 567 614 13
E 568 615 13
E 569 616 13
E 570 617 13
E 571 618 13
E 574 621 13
E 575 622 13
E 578 625 13
E 579 626 13
E 580 627 13
E 581 628 13
E 582 630 13
E 583 632 13
E 584 634 13
E 585 635 13
E 586 636 13
E 587 637 13
E 588 638 13
E 589 639 13
E 590 640 13
E 591 641 13
E 592 642 13
E 593 643 13
E 594 644 13
E 595 645 13
E 596 646 13
E 597 647 13
E 598 648 13
E 599 649 13
E 600 650 13
E 601 651 13
E 602 603 5
E 603 604 5
E 604 605 5
E 605 606 5
E 606 607 5
E 607 608 5
E 608 609 5
E 609 610 5
E 610 611 5
E 611 612 5
E 612 613 5
E 613 614 5
E 614 615 5
E 615 616 5
E 616 617 5
E 617 618 5
E 618 619 5
E 619 620 5
E 620 621 5
E 621 622 5
E 622 623 5
E 623 624 5
E 624 625 5
E 625 626 5
E 626 627 5
E 627 628 5
E 628 629 5
E 629 630 5
E 630 631 5
E 631 632 5
E 632 633 5
E 633 634 5
E 634 635 5
E 637 638 5
E 638 639 5
E 639 640 5
E 640 641 5
E 641 642 5
E 642 643 5
E 643 644 5
E 644 645 5
E 645 646 5
E 646 647 5
E 647 648 5
E 648 649 5
E 649 650 5
E 650 651 5
E 602 652 13
E 603 653 13
E 604 654 13
E 605 655 13
E 606 656 13
E 607 657 13
E 608 658 13
E 611 661 13
E 612 662 13
E 613 663 13
E 616 666 13
E 617 667 13
E 620 670 13
E 621 671 13
E 622 672 13
E 623 673 13
E 624 674 13
E 627 677 13
E 628 678 13
E 629 679 13
E 630 680 13
E 631 681 13
E 632 682 13
E 633 683 13
E 634 684 13
E 635 685 13
E 636 687 13
E 637 689 13
E 640 692 13
E 641 693 13
E 642 694 13
E 644 695 13
E 645 696 13
E 646 697 13
E 647 698 13
E 648 699 13
E 650 700 13
E 651 701 13
E 652 653 5
E 653 654 5
E 654 655 5
E 655 656 5
E 656 657 5
E 657 658 5
E 658 659 5
E 659 660 5
E 660 661 5
E 661 662 5
E 662 663 5
E 663 664 5
E 664 665 5
E 665 666 5
E 666 667 5
E 667 668 5
E 668 669 5
E 669 670 5
E 670 671 5
E 671 672 5
E 672 673 5
E 673 674 5
E 674 675 5
E 675 676 5
E 676 677 5
E 677 678 5
E 678 679 5
E 679 680 5
E 680 681 5
E 681 682 5
E 682 683 5
E 683 684 5
E 684 685 5
E 685 686 5
E 686 687 5
E 687 688 5
E 688 689 5
E 689 690 5
E 690 691 5
E 691 692 5
E 692 693 5
E 693 694 5
E 695 696 5
E 696 697 5
E 697 698 5
E 698 699 5
E 700 701 5
E 701 702 5
E 652 703 13
E 653 704 13
E 654 705 13
E 655 706 13
E 656 707 13
E 657 708 13
E 658 709 13
E 661 712 13
E 662 713 13
E 665 716 13
E 666 717 13
E 667 718 13
E 668 719 13
E 671 722 13
E 672 723 13
E 675 726 13
E 676 727 13
E 679 730 13
E 680 731 13
E 681 732 13
E 682 733 13
E 683 734 13
E 684 735 13
E 685 736 13
E 686 737 13
E 687 738 13
E 688 739 13
E 689 740 13
E 690 741 13
E 691 742 13
E 692 743 13
E 693 744 13
E 694 745 13
E 695 746 13
E 696 747 13
E 698 748 13
E 699 749 13
E 700 750 13
E 701 751 13
E 702 752 13
E 703 704 5
E 704 705 5
E 705 706 5
E 706 707 5
E 707 708 5
E 708 709 5
E 709 710 5
E 710 711 5
E 711 712 5
E 712 713 5
E 713 714 5
E 714 715 5
E 715 716 5
E 716 717 5
E 717 718 5
E 718 719 5
E 719 720 5
E 720 721 5
E 721 722 5
E 722 723 5
E 723 724 5
E 724 725 5
E 725 726 5
E 726 727 5
E 727 728 5
E 728 729 5
E 729 730 5
E 730 731 5
E 731 732 5
E 732 733 5
E 733 734 5
E 734 735 5
E 735 736 5
E 736 737 5
E 737 738 5
E 738 739 5
E 739 740 5
E 740 741 5
E 741 742 5
E 742 743 5
E 743 744 5
E 744 745 5
E 746 747 5
E 748 749 5
E 750 751 5
E 751 752 5
END

SECTION Terminals
Terminals 26
T 31
T 38
T 140
T 210
T 232
T 233
T 267
T 288
T 304
T 360
T 365
T 389
T 401
T 435
T 438
T 459
T 468
T 489
T 494
T 501
T 515
T 581
T 582
T 583
T 608
T 658
END

SECTION Tree Decomposition
c We do not guarantee that this tree decomposition has minimum width.
s td 643 23 752
b 1 1 2 51
b 2 752 702 751
b 3 702 751 701
b 4 94 43 146
b 5 749 748 699
b 6 748 699 698
b 7 747 746 696
b 8 746 695 696
b 9 350 399 299
b 10 751 750 701
b 11 750 701 700
b 12 96 95 97
b 13 390 391 389
b 14 391 392 389
b 15 420 421 419
b 16 440 439 441
b 17 464 465 463
b 18 465 463 466
b 19 32 33 31
b 20 470 469 471
b 21 490 489 491
b 22 516 517 515
b 23 517 518 515
b 24 33 31 34
b 25 729 728 730
b 26 533 582 482
b 27 136 135 137
b 28 534 583 484
b 29 725 724 726
b 30 724 726 723
b 31 539 540 538
b 32 554 505 553
b 33 721 720 722
b 34 720 719 722
b 35 577 576 578
b 36 147 95 196
b 37 582 630 482
b 38 583 484 632
b 39 715 714 716
b 40 586 636 538
b 41 148 197 97
b 42 371 370 372
b 43 711 710 712
b 44 39 40 38
b 45 619 620 618
b 46 40 41 38
b 47 636 687 538
b 48 659 660 658
b 49 660 661 658
b 50 10 9 11
b 51 703 652 704
b 52 169 168 170
b 53 701 700 651
b 54 700 651 650
b 55 664 665 663
b 56 669 668 670
b 57 651 601 650
b 58 43 44 146
b 59 42 93 41
b 60 695 696 644
b 61 699 698 648
b 62 44 45 146
b 63 45 95 146
b 64 710 709 712
b 65 714 713 716
b 66 180 181 179
b 67 181 179 182
b 68 342 341 343
b 69 46 47 97
b 70 728 730 727
b 71 184 233 135
b 72 9 11 8
b 73 745 744 694
b 74 12 11 62
b 75 197 247 97
b 76 13 14 64
b 77 50 101 49
b 78 233 135 285
b 79 246 247 245
b 80 251 200 250
b 81 84 85 83
b 82 303 353 302
b 83 320 321 319
b 84 321 319 322
b 85 341 340 343
b 86 505 453 504 553
b 87 93 41 92 144
b 88 353 302 352 402
b 89 744 694 693 743
b 90 101 49 100 151
b 91 2 51 52 3
b 92 652 704 653 602
b 93 601 650 600 553
b 94 650 600 649 553
b 95 698 697 647 648
b 96 41 92 144 38
b 97 704 653 705 602
b 98 11 8 61 62
b 99 696 645 697 644
b 100 694 693 743 642
b 101 47 98 48 97
b 102 98 48 99 97
b 103 49 100 48 151
b 104 51 52 3 102
b 105 200 250 151 199
b 106 14 65 15 64
b 107 250 151 199 249
b 108 302 352 402 301
b 109 665 663 666 716
b 110 344 393 343 292
b 111 345 394 346 294
b 112 348 347 297 349
b 113 187 139 188 186
b 114 88 37 87 89
b 115 639 638 589 640
b 116 351 352 400 301
b 117 352 401 400 402 301
b 118 637 587 638 689
b 119 354 355 403 304
b 120 356 355 405 357
b 121 633 634 632 683
b 122 741 742 690 740
b 123 90 91 141 89
b 124 361 362 311 360
b 125 629 630 679 628
b 126 366 367 316 365
b 127 370 372 419 369
b 128 23 22 74 24
b 129 625 626 578 624
b 130 95 97 196 146
b 131 6 7 5 56
b 132 386 435 385 336
b 133 387 436 388 338
b 134 620 618 670 621
b 135 25 26 76 24
b 136 396 446 395 347
b 137 397 398 447 349
b 138 399 398 449 299
b 139 615 614 568 616
b 140 737 686 738 736
b 141 410 461 411 409
b 142 413 364 414 412
b 143 415 416 414 466
b 144 421 422 419 472
b 145 609 610 562 608
b 146 27 26 28 78
b 147 437 436 388 438
b 148 439 441 438 491
b 149 443 495 444 442
b 150 448 398 447 449
b 151 450 451 502 449
b 152 454 403 455 506
b 153 460 461 459 409
b 154 739 688 738 740
b 155 29 30 80 28
b 156 469 471 418 468
b 157 597 647 598 596
b 158 713 712 662 716
b 159 119 120 68 118
b 160 481 430 480 482
b 161 483 432 484 482
b 162 485 434 484 486
b 163 735 684 736 734
b 164 487 536 488 486
b 165 489 491 488 538
b 166 31 30 82 34
b 167 123 124 72 122
b 168 492 493 541 491
b 169 585 584 635 536
b 170 496 495 444 497
b 171 499 548 500 498
b 172 501 502 550 449
b 173 581 532 580 628
b 174 730 731 679 727
b 175 733 682 732 734
b 176 503 504 451 502
b 177 576 578 527 575
b 178 512 513 561 511
b 179 130 131 79 129
b 180 521 522 570 520
b 181 573 572 524 574
b 182 528 529 476 527
b 183 134 135 83 133
b 184 535 584 536 486
b 185 537 536 488 538
b 186 726 723 675 727
b 187 540 587 541 538
b 188 544 545 543 591
b 189 549 548 596 500
b 190 551 552 599 550
b 191 35 36 86 34
b 192 555 556 506 602
b 193 557 556 508 558
b 194 140 139 188 141
b 195 565 566 612 564
b 196 142 91 143 141
b 197 145 144 146 193
b 198 719 668 718 722
b 199 717 718 666 716
b 200 149 99 150 198
b 201 677 678 676 627
b 202 603 653 604 602
b 203 653 705 654 604 602
b 204 152 102 153 201
b 205 623 673 622 624
b 206 631 681 630 632
b 207 643 644 593 642
b 208 709 712 658 708
b 209 707 706 656 708
b 210 176 175 126 177
b 211 168 170 118 167
b 212 173 222 174 172
b 213 691 742 690 692
b 214 185 234 137 186
b 215 189 188 190 238
b 216 183 232 133 182
b 217 191 192 143 190
b 218 195 194 244 196
b 219 211 212 162 210
b 220 674 673 624 675
b 221 217 268 216 218
b 222 219 220 170 218
b 223 224 225 223 275
b 224 227 178 228 226
b 225 229 230 228 280
b 226 4 3 54 5
b 227 59 60 110 58
b 228 236 289 237 235
b 229 239 240 190 238
b 230 241 240 242 294
b 231 243 194 244 242
b 232 16 15 67 17
b 233 248 249 300 247
b 234 63 114 62 64
b 235 252 253 201 304
b 236 259 260 208 258
b 237 262 314 261 263
b 238 264 265 213 263
b 239 269 268 218 270
b 240 271 323 270 272
b 241 273 274 222 272
b 242 18 69 17 19
b 243 278 279 330 277
b 244 284 285 336 283
b 245 286 287 338 285
b 246 290 289 237 291
b 247 293 240 292 294
b 248 295 296 346 294
b 249 298 245 297 349
b 250 305 306 253 304
b 251 312 362 311 313
b 252 317 367 316 318
b 253 20 21 71 19
b 254 325 326 375 324
b 255 337 338 285 336
b 256 85 86 83 34
b 257 100 48 99 150 151
b 258 48 99 150 151 97
b 259 99 150 151 198 97
b 260 150 151 198 199 97
b 261 151 198 199 249 97
b 262 742 690 743 692 740
b 263 690 743 692 689 740
b 264 401 400 402 452 301
b 265 400 402 452 451 301
b 266 402 452 453 451 301
b 267 452 453 504 451 301
b 268 453 504 451 553 301
b 269 504 451 502 553 301
b 270 451 502 553 449 301
b 271 502 550 553 449 301
b 272 362 311 363 360 313
b 273 311 363 360 313 310
b 274 398 447 449 299 349
b 275 495 444 497 494 442
b 276 584 635 536 634 486
b 277 447 500 449 299 349
b 278 37 36 87 38 89
b 279 552 600 599 550 553
b 280 600 599 649 550 553
b 281 599 649 550 553 598
b 282 649 550 553 598 648
b 283 139 188 141 138 186
b 284 688 738 687 689 740
b 285 686 738 687 736 685
b 286 705 654 604 706 602
b 287 654 604 655 706 602
b 288 604 655 706 605 602
b 289 655 706 656 605 602
b 290 706 656 605 708 602
b 291 693 743 692 641 642
b 292 635 536 685 634 486
b 293 91 92 143 141 89
b 294 678 676 679 628 627
b 295 52 3 53 103 102
b 296 192 143 144 190 193
b 297 268 216 218 267 270
b 298 249 300 247 97 301
b 299 300 247 97 299 301
b 300 461 411 462 459 409
b 301 247 97 245 299 301
b 302 411 462 459 412 409
b 303 289 237 291 235 288
b 304 274 222 223 275 272
b 305 237 291 235 288 238
b 306 673 622 624 672 675
b 307 296 346 347 297 294
b 308 367 316 365 368 318
b 309 316 365 368 315 318
b 310 393 392 343 292 442
b 311 394 346 395 444 294
b 312 346 395 347 444 297 294
b 313 22 73 21 74 24
b 314 645 646 697 595 644
b 315 416 467 414 466 417
b 316 435 434 385 336 486
b 317 436 388 438 338 488
b 318 7 57 8 5 56
b 319 446 445 395 347 498
b 320 445 395 347 444 497 498
b 321 522 570 520 523 571
b 322 731 680 732 679 727
b 323 513 561 562 511 514
b 324 131 79 80 132 129
b 325 529 477 476 527 530
b 326 572 524 574 523 571
b 327 566 612 564 567 613
b 328 545 592 546 543 591
b 329 614 568 616 567 613
b 330 626 578 624 579 627
b 331 610 563 562 608 611
b 332 175 126 177 174 125
b 333 225 276 223 275 226
b 334 220 171 170 218 221
b 335 532 580 531 628 480
b 336 234 235 287 137 186
b 337 230 231 281 228 280
b 338 232 231 283 133 182
b 339 60 110 58 61 111
b 340 212 162 163 210 213
b 341 65 66 15 64 116
b 342 260 208 209 258 261
b 343 265 214 266 213 263
b 344 120 68 69 118 121
b 345 668 718 667 670 722
b 346 279 331 330 280 277
b 347 493 542 541 494 491
b 348 306 253 254 307 304
b 349 326 375 324 376 327
b 350 124 72 73 122 125
b 351 92 143 144 141 38 89
b 352 743 692 641 642 689 740
b 353 692 641 640 642 689 740
b 354 738 687 736 685 689 740
b 355 641 640 642 591 689 740
b 356 550 553 598 648 449 301
b 357 680 732 681 630 679 727
b 358 687 736 685 538 689 740
b 359 68 69 67 17 118 121
b 360 646 697 647 596 595 644
b 361 697 647 648 596 595 644
b 362 647 598 648 596 595 644
b 363 72 73 21 71 122 125
b 364 79 80 132 129 28 78
b 365 395 347 444 497 498 297 294
b 366 347 444 497 498 297 349 294
b 367 372 419 369 322 373
b 368 441 392 438 442 491
b 369 471 418 472 468 523
b 370 663 662 666 613 716
b 371 723 722 672 675 727
b 372 618 670 617 571 621
b 373 135 285 137 83 133
b 374 388 339 389 438 338 488
b 375 97 196 245 299 301 146
b 376 3 53 103 102 54 5
b 377 53 103 102 104 54 5
b 378 103 102 153 104 54 5
b 379 102 153 104 54 201 5
b 380 592 593 546 642 543 591
b 381 36 87 86 38 89 34
b 382 87 86 138 38 89 34
b 383 561 562 511 560 608 514
b 384 563 562 608 611 564 514
b 385 562 511 560 608 611 564 514
b 386 718 667 670 722 666 716
b 387 667 670 722 617 666 716
b 388 434 385 433 484 336 486
b 389 194 244 196 146 193 242
b 390 536 685 634 488 538 486
b 391 656 605 606 708 657 602
b 392 605 606 708 657 558 602
b 393 676 679 628 627 675 727
b 394 253 202 201 254 307 304
b 395 66 15 117 67 64 116
b 396 15 117 67 17 64 116
b 397 580 531 579 628 627 480
b 398 73 21 74 71 122 24 125
b 399 21 74 71 122 19 24 125
b 400 74 71 122 19 24 75 125
b 401 71 122 19 70 24 75 125
b 402 166 167 215 116 165
b 403 161 162 160 111 210
b 404 358 407 308 357 359
b 405 158 157 108 159 207
b 406 374 375 324 373 423
b 407 377 378 426 376 327
b 408 382 381 332 383 431
b 409 156 155 106 205 157
b 410 113 112 163 114 62
b 411 380 330 381 379 429
b 412 384 385 433 334 383
b 413 105 104 54 155 106
b 414 404 355 403 455 405
b 415 355 403 455 405 304 357
b 416 403 455 506 405 304 357
b 417 109 110 58 108 159
b 418 456 508 455 405 457
b 419 458 457 407 459 510
b 420 463 462 515 412 466
b 421 473 422 472 525 474
b 422 475 476 424 474 527
b 423 594 595 547 644 593
b 424 478 477 427 479 530
b 425 588 587 638 541 589
b 426 587 638 541 589 538 689
b 427 638 541 589 640 538 689
b 428 127 126 76 128 177
b 429 425 476 426 376 424
b 430 559 606 560 558 510
b 431 428 427 379 429 479
b 432 569 570 520 568 616
b 433 179 178 129 182 228
b 434 164 163 114 165 213
b 435 590 589 640 543 591
b 436 115 114 64 116 165
b 437 203 154 202 204 254
b 438 206 205 157 207 257
b 439 107 106 157 56 108
b 440 55 54 106 5 56
b 441 526 525 474 527 575
b 442 309 257 308 310 359
b 443 607 606 657 560 608
b 444 661 712 658 611 662
b 445 712 658 708 611 662 716
b 446 518 515 466 519 567
b 447 255 256 204 254 307
b 448 406 405 457 407 357
b 449 335 385 336 283 334
b 450 507 556 508 455 506
b 451 556 508 455 506 558 602
b 452 509 508 457 558 510
b 453 408 407 459 409 359
b 454 77 26 76 128 78
b 455 26 76 128 28 78 24
b 456 671 670 722 621 672
b 457 319 267 318 369 322
b 458 81 30 80 82 132
b 459 30 80 82 132 28 34
b 460 80 82 132 129 28 78 34
b 461 282 231 281 283 334
b 462 329 330 277 328 379
b 463 333 281 334 332 383
b 464 340 339 389 343 288
b 465 363 360 313 364 412 310
b 466 331 330 381 280 332 277
b 467 542 541 589 494 543 491
b 468 548 596 595 547 500 498
b 469 171 170 218 121 172 221
b 470 467 414 466 519 417 468
b 471 682 732 681 632 683 734
b 472 684 736 685 634 683 734
b 473 208 209 258 159 207 261
b 474 188 141 138 190 186 238
b 475 57 8 58 5 56 108
b 476 214 266 215 165 213 263
b 477 612 611 564 662 567 613
b 478 524 574 472 525 523 571
b 479 276 223 275 226 277 328
b 480 365 368 315 364 414 318
b 481 291 235 343 288 238 292
b 482 578 624 579 627 527 575
b 483 143 144 141 38 89 190 193
b 484 144 141 38 89 190 146 193
b 485 598 648 596 595 644 449 301
b 486 658 708 657 608 611 662 716
b 487 117 67 17 118 167 64 116
b 488 360 313 364 412 409 310 359
b 489 244 196 245 297 146 193 242
b 490 209 258 159 207 160 210 261
b 491 86 138 38 89 137 83 34
b 492 69 67 17 19 70 118 121
b 493 196 245 297 299 301 146 193 242
b 494 245 297 299 301 349 146 193 242
b 495 622 624 575 621 672 675
b 496 432 433 484 383 431 482
b 497 430 381 431 429 480 482
b 498 314 315 313 364 261 263
b 499 323 324 270 322 373 272
b 500 216 218 167 215 267 270
b 501 240 190 238 292 242 294
b 502 110 58 108 159 160 61 111
b 503 153 104 54 154 202 201 5
b 504 104 54 154 155 106 202 201 5
b 505 54 154 155 106 202 201 5 56
b 506 368 315 364 414 417 318 369
b 507 126 76 128 177 174 75 125
b 508 570 520 568 616 617 523 571
b 509 170 218 118 121 167 172 221
b 510 8 58 5 56 108 61 62
b 511 574 472 525 523 571 575 621
b 512 531 579 628 627 479 480 530
b 513 541 589 640 494 543 491 538 689
b 514 589 640 494 543 591 491 538 689
b 515 640 642 494 543 591 491 538 689 740
b 516 596 595 547 644 500 449 498 301
b 517 595 547 644 500 449 593 498 301
b 518 547 644 500 449 593 546 498 301
b 519 644 500 449 593 546 498 301 642
b 520 500 449 593 546 498 299 301 349 642
b 521 112 162 163 114 61 62 111
b 522 375 324 376 424 373 423 327
b 523 477 476 426 427 479 527 530
b 524 178 129 128 177 182 228 226
b 525 422 419 472 525 373 423 474
b 526 462 514 515 459 412 409 466
b 527 256 204 254 205 307 257 308
b 528 222 223 275 174 172 221 272
b 529 392 389 438 343 292 442 491
b 530 266 215 267 165 213 263 318
b 531 508 455 506 405 457 558 510 602
b 532 455 506 405 457 558 510 602 304 357
b 533 405 457 407 558 510 602 304 357
b 534 457 407 558 459 510 602 304 357
b 535 732 681 630 679 632 683 727 734
b 536 736 685 634 538 689 740 683 734
b 537 82 132 129 28 78 83 34 133
b 538 132 129 28 78 83 34 133 182
b 539 624 579 627 527 575 621 672 675
b 540 444 497 498 297 349 494 294 442
b 541 497 546 498 297 349 494 294 442
b 542 520 568 616 617 519 468 523 571
b 543 593 546 498 299 301 349 642 543 591
b 544 685 634 488 538 689 740 486 683 734
b 545 634 488 538 689 740 486 632 683 734
b 546 154 155 106 202 201 204 254 5 56
b 547 418 419 472 417 468 523 369
b 548 606 708 657 560 608 558 510 602
b 549 330 381 280 332 277 328 379 429
b 550 670 722 617 666 716 571 621 672
b 551 385 433 484 336 486 283 334 383
b 552 433 484 336 486 283 334 383 431 482
b 553 484 336 486 283 334 383 431 482 632
b 554 258 159 207 257 160 210 261 310
b 555 630 679 628 482 632 683 727 734
b 556 679 628 627 482 632 675 683 727 734
b 557 722 617 666 716 571 621 672 675 727
b 558 568 616 617 519 567 613 468 523 571
b 559 616 617 666 519 567 613 468 523 571
b 560 67 17 19 70 118 121 167 64 116
b 561 58 5 56 108 159 160 61 62 111
b 562 155 106 202 201 204 254 205 157 5 56
b 563 106 202 201 204 254 205 157 5 56 108
b 564 378 426 427 376 327 328 379
b 565 339 389 438 343 288 287 338 488
b 566 235 343 288 287 137 186 238 292
b 567 122 19 70 121 24 75 125 172
b 568 76 128 28 78 177 174 24 75 125
b 569 141 138 38 89 190 186 238 146 193
b 570 162 163 114 160 61 62 111 210 213
b 571 163 114 160 61 62 111 210 165 213
b 572 389 438 343 288 287 338 292 442 491 488
b 573 202 201 204 254 205 157 307 5 56 108 304
b 574 204 254 205 157 307 5 56 108 257 304 308
b 575 205 157 307 5 56 108 207 257 304 308
b 576 157 307 5 56 108 159 207 257 304 308
b 577 307 5 56 108 159 207 257 304 308 357
b 578 231 281 283 334 133 182 228 280
b 579 281 283 334 133 182 228 280 332 383
b 580 511 560 608 611 564 514 459 510
b 581 114 160 61 62 111 210 64 116 165 213
b 582 708 657 560 608 611 662 558 510 602 716
b 583 560 608 611 564 662 514 558 459 510 602 716
b 584 611 564 662 514 558 459 510 602 567 613 716
b 585 564 662 514 515 558 459 510 602 567 613 716
b 586 662 514 515 558 459 510 602 666 567 613 716
b 587 223 275 174 226 277 172 221 272 328
b 588 275 174 226 277 172 221 272 327 328
b 589 476 426 427 376 424 474 479 527 530
b 590 218 118 121 167 215 267 270 172 221
b 591 324 376 424 270 322 373 423 272 327
b 592 315 313 364 414 261 417 263 318 369
b 593 343 288 287 338 137 186 238 292 442 491 488
b 594 287 338 285 137 186 238 292 442 491 488
b 595 338 285 137 186 238 292 442 491 488 336
b 596 138 38 89 190 137 186 238 146 193 83 34
b 597 426 427 376 424 474 327 328 379 479 527 530
b 598 427 376 424 474 327 328 379 429 479 527 530
b 599 190 137 186 238 292 146 193 242 294 83 34
b 600 19 70 118 121 167 64 116 24 75 125 172
b 601 407 558 459 510 602 409 304 308 357 359
b 602 546 498 297 299 301 349 642 494 543 591 294 442
b 603 297 299 301 349 642 494 543 591 146 193 242 294 442
b 604 579 628 627 479 480 527 530 575 621 672 675
b 605 129 128 28 78 177 83 34 133 182 228 226
b 606 5 56 108 159 207 257 160 61 62 111 304 308 357
b 607 159 207 257 160 61 62 111 210 261 304 308 310 357
b 608 257 160 61 62 111 210 261 304 308 310 357 359
b 609 642 494 543 591 146 193 242 294 442 491 538 689 740
b 610 118 121 167 215 267 64 116 270 24 75 125 172 221
b 611 167 215 267 64 116 165 270 24 75 125 172 221
b 612 381 280 332 383 431 277 328 379 429 480 482
b 613 514 515 558 459 510 602 412 409 466 666 567 613 716
b 614 515 558 459 510 602 412 409 466 666 519 567 613 716
b 615 419 472 525 417 468 523 369 322 373 423 474
b 616 472 525 417 468 523 571 369 322 373 423 474 575 621
b 617 525 417 468 523 571 369 322 373 423 474 527 575 621
b 618 285 137 186 238 292 442 491 488 336 283 83 133
b 619 137 186 238 292 146 193 242 294 442 491 488 336 283 83 34 133
b 620 146 193 242 294 442 491 488 538 689 740 336 283 83 34 133
b 621 488 538 689 740 336 486 283 83 34 133 632 683 734
b 622 336 486 283 334 83 34 133 383 431 482 632 683 734
b 623 283 334 83 34 133 182 228 280 332 383 431 482 632 683 734
b 624 313 364 414 412 409 261 310 359 417 263 318 369
b 625 414 412 409 466 261 310 359 519 417 468 263 318 369
b 626 215 267 64 116 165 213 263 318 270 24 75 125 172 221
b 627 267 64 116 165 213 263 318 369 270 322 24 75 125 172 221
b 628 617 666 519 567 613 716 468 523 571 621 672 675 727
b 629 128 28 78 177 83 34 133 182 228 174 226 24 75 125
b 630 160 61 62 111 210 261 304 308 310 357 359 64 116 165 213
b 631 558 459 510 602 412 409 466 304 308 357 359 666 519 567 613 716
b 632 628 627 479 480 482 527 530 575 621 632 672 675 683 727 734
b 633 376 424 270 322 373 423 474 272 327 328 379 429 479 527 530
b 634 412 409 466 261 304 308 310 357 359 666 519 567 613 716 417 468 263 318 369
b 635 261 304 308 310 357 359 666 519 567 613 716 417 468 64 116 165 213 263 318 369
b 636 83 34 133 182 228 280 332 383 431 174 226 24 75 125 482 632 683 734
b 637 280 332 383 431 174 226 277 24 75 125 328 379 429 480 482 632 683 734
b 638 174 226 277 24 75 125 172 221 272 327 328 379 429 480 482 632 683 734
b 639 666 519 567 613 716 417 468 523 571 64 116 165 213 263 318 369 621 672 675 727
b 640 417 468 523 571 64 116 165 213 263 318 369 322 373 423 474 527 575 621 672 675 727
b 641 64 116 165 213 263 318 369 270 322 373 423 474 24 75 125 172 221 527 575 621 672 675 727
b 642 270 322 373 423 474 24 75 125 172 221 272 327 328 379 429 479 527 530 575 621 672 675 727
b 643 24 75 125 172 221 272 327 328 379 429 479 480 482 527 530 575 621 632 672 675 683 727 734
1 91
91 104
104 295
295 376
376 377
377 378
378 379
379 503
503 504
504 505
505 546
546 562
562 563
563 573
573 574
574 575
575 576
576 577
577 606
606 607
607 608
608 630
630 635
635 634
635 639
639 640
640 641
641 642
642 643
643 638
638 637
641 627
643 632
637 636
642 633
627 626
636 623
634 625
634 631
631 614
614 613
639 628
640 617
617 616
626 611
623 622
611 610
637 612
632 604
636 629
633 598
625 624
616 615
613 586
629 605
598 597
586 585
585 584
631 601
610 600
622 621
630 581
584 583
621 620
620 619
619 618
619 599
620 609
618 595
609 603
603 602
595 594
594 593
638 588
632 556
633 591
623 579
606 561
628 559
628 557
622 553
610 590
629 568
624 592
597 589
583 582
599 596
609 515
581 571
602 543
621 545
593 572
588 587
559 558
553 552
596 569
571 570
545 544
544 536
607 554
612 549
604 539
605 538
538 537
601 534
600 560
534 533
533 532
532 531
600 567
583 580
603 494
494 493
602 541
541 540
593 566
556 555
579 578
557 550
582 548
515 514
514 513
543 520
520 519
519 518
518 517
517 516
572 565
558 542
552 551
493 489
537 460
540 366
574 527
555 535
560 492
554 490
560 487
580 385
567 401
542 508
366 365
401 400
400 399
399 398
626 530
613 526
616 511
604 512
624 488
615 525
615 547
605 524
597 564
591 522
561 502
561 510
590 509
568 507
592 506
589 523
582 486
596 491
572 529
587 528
569 484
484 483
570 521
493 375
566 481
550 387
548 392
513 427
513 467
516 485
516 468
565 374
551 388
489 389
460 364
460 459
535 471
535 357
492 359
490 473
544 390
385 383
365 312
365 320
487 396
398 363
530 476
385 384
536 358
511 478
512 397
536 472
488 465
549 466
539 482
510 475
509 469
506 480
539 495
531 451
486 445
491 382
532 416
483 351
387 386
392 391
427 426
485 362
396 395
358 354
625 470
382 381
416 415
362 361
361 360
584 477
612 497
599 501
556 393
591 499
590 500
568 455
592 498
515 355
355 353
353 352
543 380
573 394
587 479
552 496
569 474
534 419
533 448
531 418
531 452
521 410
540 275
566 336
578 337
578 338
578 461
550 372
550 456
548 430
548 443
514 435
520 277
517 423
575 438
565 464
551 412
551 449
527 447
627 457
508 432
508 321
398 313
526 302
526 420
576 405
525 421
547 369
522 349
522 406
564 407
502 339
502 417
507 332
507 428
523 325
523 424
529 310
529 368
528 304
483 296
375 301
481 305
467 347
485 356
374 317
388 316
364 324
459 458
357 322
359 344
473 342
390 292
383 323
312 311
312 307
320 319
363 350
476 343
384 331
478 326
397 335
465 273
466 346
482 330
475 318
480 309
495 306
451 450
445 444
351 293
386 345
395 341
354 285
354 284
470 315
381 278
415 414
391 290
393 294
426 425
500 297
455 454
352 263
352 291
380 328
394 348
469 334
549 411
479 333
614 446
474 283
549 462
277 274
302 300
617 441
301 299
305 303
356 271
356 282
292 276
504 413
273 272
309 308
611 402
477 327
290 289
263 262
360 314
608 442
299 298
271 270
282 281
289 288
612 408
270 269
281 280
288 287
269 268
280 279
287 286
268 267
286 203
267 266
266 265
265 264
264 117
598 431
615 367
505 440
586 370
601 404
601 453
546 437
581 436
618 373
562 409
579 463
563 439
524 433
557 371
589 422
589 429
571 434
558 329
570 340
570 403
340 219
329 139
371 186
494 249
379 204
555 125
519 207
376 226
366 112
535 206
492 242
399 253
525 144
367 127
524 224
510 98
509 211
491 256
528 212
484 197
375 130
427 115
468 171
468 189
388 162
389 218
389 231
459 155
459 166
471 175
390 164
390 185
396 232
472 163
482 177
451 192
451 193
445 158
445 208
416 152
351 96
386 199
426 118
426 187
362 157
381 191
415 119
415 120
501 229
501 230
501 247
361 95
499 240
455 135
455 146
498 237
394 235
496 161
474 215
275 149
275 170
336 214
337 225
338 216
372 134
321 180
313 128
369 156
349 254
339 227
332 210
325 182
310 110
300 141
300 153
368 148
304 241
296 217
347 168
317 133
317 147
316 132
324 179
322 174
344 159
342 236
323 178
311 111
307 248
319 136
350 167
343 238
331 145
326 181
335 173
346 243
330 129
318 131
306 205
306 220
293 123
293 196
345 198
341 106
285 140
284 154
315 143
294 201
297 221
297 239
291 100
328 188
348 250
334 222
333 223
283 113
283 194
274 137
274 138
274 150
262 213
303 228
303 246
271 172
276 169
276 184
272 124
272 251
308 126
308 252
327 195
262 122
314 99
298 233
270 151
269 176
280 94
268 86
279 190
203 97
203 202
278 114
117 116
117 108
370 109
290 209
96 87
624 142
97 92
94 93
100 89
108 88
497 160
581 234
620 165
618 244
595 255
594 245
373 183
545 121
186 30
433 67
67 66
555 37
37 26
130 36
211 52
98 72
72 50
98 74
529 14
14 13
358 47
47 40
301 79
301 75
464 85
85 68
457 84
84 83
134 45
420 18
18 17
75 41
444 49
49 48
345 56
446 23
23 22
298 261
261 260
260 259
259 258
258 257
261 107
258 102
259 200
257 103
107 105
102 101
103 90
105 80
101 69
90 77
144 15
127 42
256 81
130 12
130 63
63 62
62 58
58 4
166 24
24 19
177 35
158 65
65 39
96 46
208 64
46 44
64 43
187 31
95 61
61 6
6 5
87 59
30 29
156 20
148 16
174 70
70 25
92 51
86 32
89 73
99 60
60 8
8 7
109 55
88 82
165 21
93 57
57 54
54 53
53 11
11 10
10 3
3 2
373 27
373 78
78 71
138 9
553 38
38 28
106 76
198 34
34 33
END

EOF
